304 5
10 10 10 10 10 

0 0 0 0 0 0 3 2 14 36 
0 0 0 0 0 0 2 3 6 
9 0 1 0 0 0 2 9 4 
8 0 8 0 0 0 1 5 
7 0 8 0 0 0 2 11 7 
7 0 6 0 0 0 2 10 9 
7 0 4 0 0 0 2 8 227 
7 0 4 0 0 0 1 10 
2 0 3 0 0 0 1 11 
1 0 6 0 0 0 1 12 
9 0 7 0 0 0 1 12 
4 0 3 0 0 0 1 13 
0 0 0 0 0 0 3 58 70 82 
0 0 0 0 0 0 1 15 
1 0 1 1 0 0 2 18 16 
2 0 5 5 0 0 2 21 17 
3 0 6 4 0 0 1 19 
9 0 5 7 0 0 1 19 
1 0 5 2 0 0 1 20 
1 0 6 5 0 0 1 22 
5 0 2 7 0 0 1 22 
9 0 5 5 0 0 3 27 25 23 
3 0 6 5 0 0 1 24 
10 0 8 6 0 0 1 26 
9 0 6 5 0 0 1 26 
4 0 6 8 0 0 2 31 28 
7 0 6 4 0 0 2 31 29 
7 0 4 4 0 0 1 29 
1 0 1 6 0 0 2 30 87 
10 0 7 7 0 0 1 32 
2 0 7 6 0 0 1 32 
3 0 4 6 0 0 1 33 
1 0 5 4 0 0 1 34 
9 0 5 3 0 0 1 35 
0 0 0 0 0 0 1 94 
0 0 0 0 0 0 3 37 51 56 
7 1 1 0 0 0 1 38 
4 6 5 0 0 0 2 46 39 
10 4 9 0 0 0 2 55 40 
7 5 5 0 0 0 1 41 
8 4 6 0 0 0 1 42 
2 6 8 0 0 0 2 54 43 
3 7 8 0 0 0 2 44 68 
3 5 6 0 0 0 1 45 
6 6 5 0 0 0 1 47 
2 4 4 0 0 0 1 47 
10 6 4 0 0 0 1 48 
10 7 5 0 0 0 1 49 
9 6 6 0 0 0 1 50 
10 6 2 0 0 0 1 52 
6 4 2 0 0 0 1 52 
8 5 3 0 0 0 1 53 
7 5 7 0 0 0 1 57 
8 1 6 0 0 0 1 57 
8 6 3 0 0 0 1 57 
3 6 5 0 0 0 1 57 
0 0 0 0 0 0 1 94 
0 0 0 0 0 0 1 59 
2 0 1 0 0 0 2 60 209 
8 0 5 0 0 0 1 61 
6 0 1 0 0 0 1 62 
9 0 6 0 0 0 2 64 63 
4 0 4 0 0 0 2 66 65 
10 0 5 0 0 0 2 68 66 
4 0 5 0 0 0 2 68 67 
9 0 7 0 0 0 1 67 
2 0 9 0 0 0 1 69 
6 0 7 0 0 0 1 69 
0 0 0 0 0 0 1 94 
0 0 0 0 0 0 2 71 75 
8 1 0 0 0 0 1 72 
10 3 0 0 0 0 2 73 178 
6 5 0 0 0 0 2 80 74 
9 2 0 0 0 0 2 79 76 
9 7 0 0 0 0 2 79 76 
10 6 0 0 0 0 1 77 
9 6 0 0 0 0 1 78 
1 5 0 0 0 0 1 81 
9 10 0 0 0 0 1 81 
3 5 0 0 0 0 1 81 
0 0 0 0 0 0 1 94 
0 0 0 0 0 0 2 83 85 
7 0 0 0 1 0 3 89 84 137 
1 0 0 0 7 0 1 86 
5 0 0 0 8 0 3 92 89 88 
3 0 0 0 7 0 2 92 87 
4 0 0 0 3 0 1 88 
6 0 0 0 5 0 1 90 
9 0 0 0 6 0 1 90 
5 0 0 0 4 0 1 91 
6 0 0 0 3 0 1 93 
8 0 0 0 6 0 1 93 
0 0 0 0 0 0 1 94 
0 0 0 0 0 0 5 95 117 139 151 173 
0 0 0 0 0 0 3 96 105 115 
10 0 0 0 1 1 3 114 107 97 
7 0 0 0 7 8 1 98 
6 0 0 0 8 4 2 99 209 
5 0 0 0 2 7 1 100 
10 0 0 0 6 5 1 101 
4 0 0 0 6 5 1 102 
5 0 0 0 7 3 1 103 
9 0 0 0 9 4 1 104 
5 0 0 0 7 4 2 113 106 
1 0 0 0 5 4 2 113 106 
2 0 0 0 3 3 1 108 
6 0 0 0 4 10 1 108 
9 0 0 0 2 8 1 109 
2 0 0 0 3 2 1 110 
4 0 0 0 6 3 1 111 
3 0 0 0 4 6 1 112 
9 0 0 0 5 4 1 116 
6 0 0 0 5 4 1 116 
1 0 0 0 6 6 1 116 
6 0 0 0 4 9 1 116 
0 0 0 0 0 0 1 255 
0 0 0 0 0 0 1 118 
3 0 2 0 0 1 2 122 119 
6 0 5 0 0 3 1 120 
4 0 7 0 0 4 1 121 
8 0 3 0 0 3 2 126 123 
4 0 2 0 0 4 2 126 123 
2 0 6 0 0 5 1 124 
3 0 5 0 0 2 1 125 
8 0 6 0 0 6 1 127 
10 0 3 0 0 6 1 127 
4 0 4 0 0 7 2 132 128 
4 0 3 0 0 7 2 131 129 
2 0 6 0 0 5 1 130 
6 0 5 0 0 5 2 135 133 
2 0 5 0 0 3 2 135 134 
9 0 6 0 0 4 1 133 
6 0 5 0 0 4 2 134 297 
5 0 3 0 0 8 1 136 
6 0 4 0 0 8 1 136 
8 0 10 0 0 8 1 137 
4 0 10 0 0 7 1 138 
0 0 0 0 0 0 1 255 
0 0 0 0 0 0 2 140 141 
4 0 0 0 0 1 2 144 142 
2 0 0 0 0 3 2 144 142 
2 0 0 0 0 9 1 143 
10 0 0 0 0 6 1 145 
3 0 0 0 0 4 1 145 
2 0 0 0 0 5 1 146 
10 0 0 0 0 5 3 149 147 232 
9 0 0 0 0 5 1 148 
2 0 0 0 0 6 1 150 
1 0 0 0 0 6 1 150 
0 0 0 0 0 0 5 195 207 219 231 243 
0 0 0 0 0 0 3 152 162 165 
1 1 1 0 0 0 3 171 170 153 
4 7 7 0 0 0 1 154 
5 2 4 0 0 0 1 155 
1 5 7 0 0 0 2 156 198 
6 4 6 0 0 0 1 157 
10 5 7 0 0 0 1 158 
8 7 7 0 0 0 2 169 159 
5 5 3 0 0 0 1 160 
8 8 4 0 0 0 1 161 
10 8 5 0 0 0 1 163 
1 5 9 0 0 0 1 163 
5 3 6 0 0 0 1 164 
6 8 4 0 0 0 1 166 
6 4 4 0 0 0 2 170 168 
3 5 4 0 0 0 1 167 
7 4 3 0 0 0 1 168 
1 4 8 0 0 0 1 172 
8 3 4 0 0 0 1 172 
7 6 2 0 0 0 1 172 
3 6 5 0 0 0 1 172 
0 0 0 0 0 0 1 255 
0 0 0 0 0 0 2 174 177 
5 1 1 0 0 0 1 175 
1 4 5 0 0 0 2 186 176 
10 6 3 0 0 0 4 191 181 178 265 
4 3 4 0 0 0 3 191 181 178 
3 7 8 0 0 0 1 179 
8 7 7 0 0 0 1 180 
10 10 5 0 0 0 1 182 
4 6 4 0 0 0 1 182 
4 7 3 0 0 0 1 183 
9 3 4 0 0 0 1 184 
2 1 5 0 0 0 1 185 
1 3 7 0 0 0 1 187 
4 5 4 0 0 0 1 187 
6 5 7 0 0 0 2 193 188 
3 3 3 0 0 0 1 189 
3 5 5 0 0 0 1 190 
1 7 9 0 0 0 1 192 
6 4 4 0 0 0 1 192 
8 7 5 0 0 0 1 194 
6 6 7 0 0 0 1 194 
0 0 0 0 0 0 1 255 
0 0 0 0 0 0 2 196 204 
8 1 0 0 0 0 3 198 197 295 
9 8 0 0 0 0 2 202 199 
6 6 0 0 0 0 2 202 201 
1 7 0 0 0 0 1 200 
6 4 0 0 0 0 1 201 
4 2 0 0 0 0 1 203 
10 5 0 0 0 0 1 203 
8 3 0 0 0 0 1 205 
9 8 0 0 0 0 1 205 
3 6 0 0 0 0 1 206 
0 0 0 0 0 0 1 255 
0 0 0 0 0 0 1 208 
9 1 0 0 0 0 2 212 209 
10 3 0 0 0 0 2 210 235 
2 4 0 0 0 0 2 216 211 
9 7 0 0 0 0 1 213 
8 6 0 0 0 0 1 213 
2 4 0 0 0 0 2 215 214 
5 8 0 0 0 0 1 217 
2 3 0 0 0 0 1 217 
8 5 0 0 0 0 1 217 
6 9 0 0 0 0 1 218 
0 0 0 0 0 0 1 255 
0 0 0 0 0 0 2 220 222 
8 0 0 0 1 0 1 221 
6 0 0 0 3 0 2 226 223 
8 0 0 0 4 0 2 226 224 
8 0 0 0 7 0 1 224 
9 0 0 0 6 0 1 225 
9 0 0 0 5 0 2 229 227 
6 0 0 0 5 0 2 229 227 
3 0 0 0 5 0 2 228 259 
8 0 0 0 9 0 1 230 
6 0 0 0 5 0 1 230 
0 0 0 0 0 0 1 255 
0 0 0 0 0 0 2 232 233 
6 0 0 0 0 1 1 234 
6 0 0 0 0 4 1 234 
1 0 0 0 0 5 2 236 235 
10 0 0 0 0 6 2 241 237 
5 0 0 0 0 5 1 237 
2 0 0 0 0 4 1 238 
1 0 0 0 0 6 1 239 
8 0 0 0 0 6 1 240 
2 0 0 0 0 4 1 242 
9 0 0 0 0 9 1 242 
0 0 0 0 0 0 1 255 
0 0 0 0 0 0 3 244 247 249 
3 1 0 0 0 0 1 245 
8 3 0 0 0 0 1 246 
7 6 0 0 0 0 2 251 248 
3 5 0 0 0 0 1 248 
5 8 0 0 0 0 1 250 
4 6 0 0 0 0 1 250 
7 9 0 0 0 0 1 252 
8 2 0 0 0 0 1 252 
6 4 0 0 0 0 1 253 
6 6 0 0 0 0 1 254 
0 0 0 0 0 0 1 255 
0 0 0 0 0 0 4 256 268 280 292 
0 0 0 0 0 0 3 257 258 260 
9 0 0 0 0 1 2 266 259 
10 0 0 0 0 4 2 266 262 
4 0 0 0 0 7 1 261 
10 0 0 0 0 7 2 266 263 
1 0 0 0 0 6 1 262 
4 0 0 0 0 4 1 263 
8 0 0 0 0 4 1 264 
6 0 0 0 0 4 1 265 
2 0 0 0 0 7 1 267 
4 0 0 0 0 6 1 267 
0 0 0 0 0 0 1 304 
0 0 0 0 0 0 2 269 271 
8 0 0 0 1 0 2 278 270 
2 0 0 0 6 0 2 275 272 
8 0 0 0 7 0 2 278 274 
3 0 0 0 3 0 1 273 
8 0 0 0 5 0 1 274 
6 0 0 0 7 0 1 276 
9 0 0 0 6 0 1 276 
7 0 0 0 8 0 1 277 
2 0 0 0 4 0 1 279 
4 0 0 0 3 0 1 279 
0 0 0 0 0 0 1 304 
0 0 0 0 0 0 3 281 287 290 
10 0 0 0 0 2 1 282 
1 0 0 0 0 7 2 289 283 
6 0 0 0 0 4 1 284 
1 0 0 0 0 4 1 285 
1 0 0 0 0 5 1 286 
5 0 0 0 0 4 1 288 
1 0 0 0 0 4 1 289 
5 0 0 0 0 10 1 291 
9 0 0 0 0 7 1 291 
7 0 0 0 0 3 1 291 
0 0 0 0 0 0 1 304 
0 0 0 0 0 0 2 293 296 
2 0 0 0 1 0 2 299 294 
5 0 0 0 8 0 1 295 
9 0 0 0 4 0 1 297 
7 0 0 0 8 0 1 297 
6 0 0 0 5 0 1 298 
1 0 0 0 7 0 1 300 
7 0 0 0 2 0 1 300 
3 0 0 0 2 0 2 302 301 
3 0 0 0 8 0 1 303 
4 0 0 0 5 0 1 303 
0 0 0 0 0 0 1 304 
0 0 0 0 0 0 0 
